p cnf 120 73
-1 -2 3 0
-1 -2 -3 0
1 -2 3 0
-1 2 3 0
-4 5 6 0
-4 5 -6 0
4 5 6 0
-4 -5 6 0
7 8 9 0
7 8 -9 0
-7 8 9 0
7 -8 9 0
10 -11 12 0
10 -11 -12 0
-10 -11 12 0
10 11 12 0
13 14 15 0
13 14 -15 0
-13 14 15 0
13 -14 15 0
13 -16 -17 0
-13 16 -17 0
13 16 17 0
-13 -16 17 0
-4 18 19 0
4 -18 19 0
-4 -18 -19 0
4 18 -19 0
-1 -10 16 0
1 10 16 0
-1 10 -16 0
1 -10 -16 0
-5 -7 20 0
5 7 20 0
-5 7 -20 0
5 -7 -20 0
8 -21 -22 0
-8 21 -22 0
8 21 22 0
-8 -21 22 0
-17 -20 -23 0
17 20 23 0
24 25 26 0
-24 -25 -26 0
9 27 -28 0
-9 -27 28 0
18 21 -29 0
-18 -21 29 0
14 24 31 0
-14 -24 -31 0
-2 11 0
-2 27 0
11 27 0
2 -11 -27 0
22 25 0
22 -30 0
25 -30 0
-22 -25 30 0
-6 26 0
-6 -32 0
26 -32 0
6 -26 32 0
12 23 0
12 -28 0
23 -28 0
-12 -23 28 0
-3 -15 0
-3 -19 0
-15 -19 0
3 15 19 0
3 0
23 0
24 0
33 0
34 0
35 0
36 0
37 0
38 0
39 0
40 0
41 0
42 0
43 0
44 0
45 0
46 0
47 0
48 0
49 0
50 0
51 0
52 0
53 0
54 0
55 0
56 0
57 0
58 0
59 0
60 0
61 0
62 0
63 0
64 0
65 0
66 0
67 0
68 0
69 0
70 0
71 0
72 0
73 0
74 0
75 0
76 0
77 0
78 0
79 0
80 0
81 0
82 0
83 0
84 0
85 0
86 0
87 0
88 0
89 0
90 0
91 0
92 0
93 0
94 0
95 0
96 0
97 0
98 0
99 0
100 0
101 0
102 0
103 0
104 0
105 0
106 0
107 0
108 0
109 0
110 0
111 0
112 0
113 0
114 0
115 0
116 0
117 0
118 0
119 0
120 0
